GLPSOL--GLPK LP/MIP Solver 5.0
Parameter(s) specified in the command line:
 --lp ../modeles/5_469.lp --log 5_469.log
Reading problem data from '../modeles/5_469.lp'...
2366 rows, 4700 columns, 16440 non-zeros
2345 integer variables, all of which are binary
7077 lines were read
GLPK Integer Optimizer 5.0
2366 rows, 4700 columns, 16440 non-zeros
2345 integer variables, all of which are binary
Preprocessing...
2330 constraint coefficient(s) were reduced
2366 rows, 4695 columns, 16435 non-zeros
2345 integer variables, all of which are binary
Scaling...
 A: min|aij| =  1.819e-05  max|aij| =  4.000e+00  ratio =  2.200e+05
GM: min|aij| =  4.618e-02  max|aij| =  2.166e+01  ratio =  4.690e+02
EQ: min|aij| =  2.132e-03  max|aij| =  1.000e+00  ratio =  4.690e+02
2N: min|aij| =  1.953e-03  max|aij| =  1.765e+00  ratio =  9.038e+02
Constructing initial basis...
Size of triangular part is 2366
Solving LP relaxation...
GLPK Simplex Optimizer 5.0
2366 rows, 4695 columns, 16435 non-zeros
      0: obj =   1.000000000e+01 inf =   2.450e+01 (11)
    124: obj =   4.999568103e-01 inf =   0.000e+00 (0)
*   399: obj =  -2.236043341e+00 inf =   1.753e-15 (0)
OPTIMAL LP SOLUTION FOUND
Integer optimization begins...
Long-step dual simplex will be used
+   399: mip =     not found yet >=              -inf        (1; 0)
+   484: >>>>>  -2.236043341e+00 >=  -2.236043341e+00 < 0.1% (84; 0)
+   484: mip =  -2.236043341e+00 >=     tree is empty   0.0% (0; 167)
INTEGER OPTIMAL SOLUTION FOUND
Time used:   0.3 secs
Memory used: 6.8 Mb (7169575 bytes)
